1
0 0
1 1
70
71
0 1
1 2
69
70
0 2
1 3
68
69
0 3
1 4
67
68
0 4
1 5
66
67
0 5
1 6
65
66
0 6
1 7
64
65
0 7
1 8
63
64
0 8
1 9
62
63
0 9
1 10
61
62
0 10
1 11
60
61
0 11
1 12
59
60
0 12
1 13
58
59
0 13
1 14
57
58
0 14
1 15
56
57
0 15
1 16
55
56
0 16
1 17
54
55
0 17
1 18
53
54
0 18
1 19
52
53
0 19
1 20
51
52
0 20
1 21
50
51
0 21
1 22
49
50
0 22
1 23
48
49
0 23
1 24
47
48
0 24
1 25
46
47
0 25
1 26
45
46
0 26
1 27
44
45
0 27
1 28
43
44
0 28
1 29
42
43
0 29
1 30
41
42
0 30
1 31
40
41
0 31
1 32
39
40
0 32
1 33
38
39
0 33
1 34
37
38
0 34
1 35
36
37
0 35
1 36
35
36
0 36
1 37
34
35
0 37
1 38
33
34
0 38
1 39
32
33
0 39
1 40
31
32
0 40
1 41
30
31
0 41
1 42
29
30
0 42
1 43
28
29
0 43
1 44
27
28
0 44
1 45
26
27
0 45
1 46
25
26
0 46
1 47
24
25
0 47
1 48
23
24
0 48
1 49
22
23
0 49
1 50
21
22
0 50
1 51
20
21
0 51
1 52
19
20
0 52
1 53
18
19
0 53
1 54
17
18
0 54
1 55
16
17
0 55
1 56
15
16
0 56
1 57
14
15
0 57
1 58
13
14
0 58
1 59
12
13
0 59
1 60
11
12
0 60
1 61
10
11
0 61
1 62
9
10
0 62
1 63
8
9
0 63
1 64
7
8
0 64
1 65
6
7
0 65
1 66
5
6
0 66
1 67
4
5
0 67
1 68
3
4
0 68
1 69
2
3
0 69
1 70
1
2
0 70
1 71
0
1
